c description: Random 3-CNF over 15 variables and 60 clauses
p cnf 15 60
1 2 -12 0
8 -11 -14 0
5 8 15 0
-7 9 15 0
-1 -7 -15 0
1 9 -14 0
2 3 12 0
-1 -4 -12 0
-5 -10 -13 0
7 -10 11 0
-6 10 12 0
2 -4 14 0
3 -12 15 0
4 12 13 0
-4 -9 14 0
3 -5 6 0
3 4 9 0
-3 4 10 0
1 9 -11 0
-7 10 -13 0
-9 11 15 0
2 -6 -8 0
1 7 10 0
2 11 14 0
-1 10 -11 0
1 -3 12 0
-2 -3 -12 0
-1 -8 11 0
-2 -9 14 0
7 -10 -11 0
-1 7 11 0
-1 -3 14 0
-5 -7 10 0
8 -9 13 0
2 11 -14 0
-4 -7 8 0
-2 5 10 0
-7 8 -11 0
-4 -5 9 0
-3 5 13 0
2 -5 -11 0
-6 7 -11 0
1 6 14 0
1 -4 15 0
1 -9 11 0
-2 8 15 0
-3 -4 14 0
3 6 10 0
-9 -12 14 0
-8 10 13 0
-5 -7 13 0
1 5 -12 0
-1 11 15 0
2 -5 9 0
-4 8 12 0
10 12 -14 0
-7 -10 14 0
-10 12 13 0
9 10 12 0
2 3 -12 0